output ["\"output\": {","\"default\": ",showJSON(concat(["x = "++format(x)++";\n"])),", \"raw\": ",showJSON(concat(["x = "++format(x)++";\n"])),"}, \"sections\": [\"default\", \"raw\"]"];
int: n = 500;
array [0..n-1] of int: x;
